c Standarized MaxSat Instance
c{
c "sha1sum": "1d87e1e74965c0b861174781a062bea77dffe4fa",
c "nvars": 40,
c "ncls": 1028,
c "nhards": 0,
c "nhard_len_stats":
c    { "min": 0, "max": 0, "ave": 0.00,
c      "stddev": 0.00 },
c "nsofts": 1028,
c "nsoft_len_stats":
c    { "min": 2, "max": 2, "ave": 2.00,
c      "stddev": 0.00 },
c "nsoft_wts": 10,
c "soft_wt_stats":
c    { "min": 1, "max": 10, "ave": 5.60,
c      "stddev": 2.84 }
c}
c------------------------------------------------------------
c FILE:  brock200_4.b
c
c Graph Generator
c
c By: Mark Brockington (brock@cs.ualberta.ca)
c and Joe Culberson (joe@cs.ualberta.ca)
c
c Graph Size:200, Clique Size: 17
c Seed:16, Edge Density:  0.65000
c Depth 0 Hiding
c
c Clique Elements are:
c 160 27 116 164 126 53 64 78 191 138 
c 11 92 37 70 185 18 28 
c
c Estimated Size of Uncompressed File:   0.1MB
c
p wcnf 40 1028 5759
9 1 2 0
9 -1 -2 0
4 1 3 0
4 -1 -3 0
8 1 4 0
8 -1 -4 0
8 1 5 0
8 -1 -5 0
10 1 6 0
10 -1 -6 0
2 1 7 0
2 -1 -7 0
4 1 8 0
4 -1 -8 0
8 1 9 0
8 -1 -9 0
3 1 10 0
3 -1 -10 0
6 1 12 0
6 -1 -12 0
5 1 13 0
5 -1 -13 0
7 1 15 0
7 -1 -15 0
4 1 16 0
4 -1 -16 0
6 1 18 0
6 -1 -18 0
10 1 19 0
10 -1 -19 0
10 1 20 0
10 -1 -20 0
7 1 21 0
7 -1 -21 0
8 1 22 0
8 -1 -22 0
2 1 24 0
2 -1 -24 0
7 1 28 0
7 -1 -28 0
1 1 29 0
1 -1 -29 0
3 1 30 0
3 -1 -30 0
2 1 31 0
2 -1 -31 0
9 1 32 0
9 -1 -32 0
2 1 33 0
2 -1 -33 0
5 1 34 0
5 -1 -34 0
2 1 39 0
2 -1 -39 0
2 1 40 0
2 -1 -40 0
10 2 4 0
10 -2 -4 0
3 2 6 0
3 -2 -6 0
6 2 7 0
6 -2 -7 0
9 2 9 0
9 -2 -9 0
7 2 10 0
7 -2 -10 0
3 2 12 0
3 -2 -12 0
7 2 13 0
7 -2 -13 0
6 2 14 0
6 -2 -14 0
5 2 15 0
5 -2 -15 0
10 2 17 0
10 -2 -17 0
3 2 18 0
3 -2 -18 0
8 2 19 0
8 -2 -19 0
6 2 20 0
6 -2 -20 0
8 2 21 0
8 -2 -21 0
5 2 22 0
5 -2 -22 0
9 2 26 0
9 -2 -26 0
3 2 27 0
3 -2 -27 0
4 2 30 0
4 -2 -30 0
9 2 33 0
9 -2 -33 0
10 2 36 0
10 -2 -36 0
1 2 37 0
1 -2 -37 0
10 2 38 0
10 -2 -38 0
6 3 4 0
6 -3 -4 0
1 3 6 0
1 -3 -6 0
2 3 7 0
2 -3 -7 0
7 3 8 0
7 -3 -8 0
9 3 9 0
9 -3 -9 0
4 3 10 0
4 -3 -10 0
1 3 11 0
1 -3 -11 0
1 3 13 0
1 -3 -13 0
5 3 16 0
5 -3 -16 0
1 3 17 0
1 -3 -17 0
3 3 19 0
3 -3 -19 0
10 3 20 0
10 -3 -20 0
10 3 21 0
10 -3 -21 0
9 3 23 0
9 -3 -23 0
3 3 24 0
3 -3 -24 0
6 3 25 0
6 -3 -25 0
4 3 26 0
4 -3 -26 0
8 3 27 0
8 -3 -27 0
6 3 28 0
6 -3 -28 0
7 3 29 0
7 -3 -29 0
6 3 30 0
6 -3 -30 0
1 3 31 0
1 -3 -31 0
5 3 33 0
5 -3 -33 0
10 3 34 0
10 -3 -34 0
10 3 35 0
10 -3 -35 0
8 3 37 0
8 -3 -37 0
3 3 39 0
3 -3 -39 0
8 3 40 0
8 -3 -40 0
7 4 5 0
7 -4 -5 0
4 4 6 0
4 -4 -6 0
7 4 7 0
7 -4 -7 0
2 4 8 0
2 -4 -8 0
5 4 9 0
5 -4 -9 0
9 4 10 0
9 -4 -10 0
9 4 13 0
9 -4 -13 0
4 4 15 0
4 -4 -15 0
3 4 19 0
3 -4 -19 0
9 4 20 0
9 -4 -20 0
4 4 22 0
4 -4 -22 0
7 4 23 0
7 -4 -23 0
10 4 24 0
10 -4 -24 0
6 4 25 0
6 -4 -25 0
7 4 26 0
7 -4 -26 0
9 4 27 0
9 -4 -27 0
5 4 28 0
5 -4 -28 0
10 4 31 0
10 -4 -31 0
4 4 32 0
4 -4 -32 0
9 4 33 0
9 -4 -33 0
7 4 35 0
7 -4 -35 0
10 4 36 0
10 -4 -36 0
5 5 6 0
5 -5 -6 0
3 5 8 0
3 -5 -8 0
10 5 10 0
10 -5 -10 0
10 5 11 0
10 -5 -11 0
2 5 12 0
2 -5 -12 0
9 5 13 0
9 -5 -13 0
7 5 14 0
7 -5 -14 0
5 5 15 0
5 -5 -15 0
7 5 17 0
7 -5 -17 0
3 5 18 0
3 -5 -18 0
8 5 19 0
8 -5 -19 0
4 5 21 0
4 -5 -21 0
5 5 22 0
5 -5 -22 0
3 5 23 0
3 -5 -23 0
2 5 24 0
2 -5 -24 0
3 5 25 0
3 -5 -25 0
6 5 27 0
6 -5 -27 0
5 5 28 0
5 -5 -28 0
2 5 29 0
2 -5 -29 0
10 5 30 0
10 -5 -30 0
2 5 32 0
2 -5 -32 0
2 5 33 0
2 -5 -33 0
5 5 34 0
5 -5 -34 0
8 5 36 0
8 -5 -36 0
10 5 37 0
10 -5 -37 0
10 5 38 0
10 -5 -38 0
7 5 39 0
7 -5 -39 0
4 5 40 0
4 -5 -40 0
8 6 8 0
8 -6 -8 0
4 6 11 0
4 -6 -11 0
3 6 13 0
3 -6 -13 0
3 6 14 0
3 -6 -14 0
6 6 15 0
6 -6 -15 0
3 6 16 0
3 -6 -16 0
2 6 17 0
2 -6 -17 0
8 6 19 0
8 -6 -19 0
2 6 21 0
2 -6 -21 0
8 6 22 0
8 -6 -22 0
2 6 25 0
2 -6 -25 0
8 6 26 0
8 -6 -26 0
1 6 27 0
1 -6 -27 0
10 6 28 0
10 -6 -28 0
1 6 29 0
1 -6 -29 0
6 6 30 0
6 -6 -30 0
2 6 32 0
2 -6 -32 0
3 6 33 0
3 -6 -33 0
8 6 35 0
8 -6 -35 0
8 6 36 0
8 -6 -36 0
7 6 38 0
7 -6 -38 0
10 7 9 0
10 -7 -9 0
7 7 11 0
7 -7 -11 0
8 7 13 0
8 -7 -13 0
1 7 16 0
1 -7 -16 0
2 7 17 0
2 -7 -17 0
6 7 18 0
6 -7 -18 0
1 7 19 0
1 -7 -19 0
1 7 22 0
1 -7 -22 0
3 7 24 0
3 -7 -24 0
5 7 25 0
5 -7 -25 0
9 7 26 0
9 -7 -26 0
6 7 27 0
6 -7 -27 0
8 7 28 0
8 -7 -28 0
1 7 29 0
1 -7 -29 0
2 7 30 0
2 -7 -30 0
10 7 33 0
10 -7 -33 0
3 7 35 0
3 -7 -35 0
9 7 36 0
9 -7 -36 0
2 7 38 0
2 -7 -38 0
10 7 40 0
10 -7 -40 0
1 8 9 0
1 -8 -9 0
9 8 10 0
9 -8 -10 0
1 8 11 0
1 -8 -11 0
1 8 12 0
1 -8 -12 0
10 8 13 0
10 -8 -13 0
6 8 14 0
6 -8 -14 0
2 8 15 0
2 -8 -15 0
2 8 16 0
2 -8 -16 0
4 8 17 0
4 -8 -17 0
10 8 20 0
10 -8 -20 0
9 8 21 0
9 -8 -21 0
4 8 22 0
4 -8 -22 0
6 8 23 0
6 -8 -23 0
6 8 25 0
6 -8 -25 0
5 8 26 0
5 -8 -26 0
7 8 27 0
7 -8 -27 0
1 8 28 0
1 -8 -28 0
6 8 30 0
6 -8 -30 0
8 8 32 0
8 -8 -32 0
4 8 34 0
4 -8 -34 0
10 8 40 0
10 -8 -40 0
6 9 12 0
6 -9 -12 0
9 9 13 0
9 -9 -13 0
8 9 14 0
8 -9 -14 0
7 9 15 0
7 -9 -15 0
1 9 18 0
1 -9 -18 0
8 9 19 0
8 -9 -19 0
9 9 20 0
9 -9 -20 0
10 9 21 0
10 -9 -21 0
9 9 22 0
9 -9 -22 0
9 9 25 0
9 -9 -25 0
10 9 26 0
10 -9 -26 0
8 9 28 0
8 -9 -28 0
10 9 30 0
10 -9 -30 0
10 9 31 0
10 -9 -31 0
7 9 32 0
7 -9 -32 0
5 9 33 0
5 -9 -33 0
2 9 34 0
2 -9 -34 0
9 9 37 0
9 -9 -37 0
9 9 38 0
9 -9 -38 0
1 9 40 0
1 -9 -40 0
7 10 12 0
7 -10 -12 0
3 10 13 0
3 -10 -13 0
7 10 14 0
7 -10 -14 0
3 10 15 0
3 -10 -15 0
8 10 16 0
8 -10 -16 0
4 10 18 0
4 -10 -18 0
4 10 21 0
4 -10 -21 0
3 10 22 0
3 -10 -22 0
1 10 23 0
1 -10 -23 0
7 10 25 0
7 -10 -25 0
3 10 26 0
3 -10 -26 0
7 10 27 0
7 -10 -27 0
6 10 29 0
6 -10 -29 0
10 10 33 0
10 -10 -33 0
3 10 34 0
3 -10 -34 0
6 10 35 0
6 -10 -35 0
8 10 36 0
8 -10 -36 0
2 10 37 0
2 -10 -37 0
5 10 38 0
5 -10 -38 0
6 10 39 0
6 -10 -39 0
10 10 40 0
10 -10 -40 0
5 11 12 0
5 -11 -12 0
4 11 13 0
4 -11 -13 0
9 11 15 0
9 -11 -15 0
5 11 19 0
5 -11 -19 0
1 11 20 0
1 -11 -20 0
4 11 21 0
4 -11 -21 0
6 11 23 0
6 -11 -23 0
9 11 24 0
9 -11 -24 0
3 11 25 0
3 -11 -25 0
7 11 26 0
7 -11 -26 0
5 11 27 0
5 -11 -27 0
5 11 28 0
5 -11 -28 0
4 11 29 0
4 -11 -29 0
8 11 30 0
8 -11 -30 0
2 11 31 0
2 -11 -31 0
7 11 32 0
7 -11 -32 0
1 11 33 0
1 -11 -33 0
5 11 34 0
5 -11 -34 0
7 11 36 0
7 -11 -36 0
7 11 40 0
7 -11 -40 0
7 12 14 0
7 -12 -14 0
4 12 15 0
4 -12 -15 0
2 12 16 0
2 -12 -16 0
7 12 17 0
7 -12 -17 0
7 12 18 0
7 -12 -18 0
8 12 19 0
8 -12 -19 0
4 12 20 0
4 -12 -20 0
8 12 21 0
8 -12 -21 0
3 12 22 0
3 -12 -22 0
10 12 24 0
10 -12 -24 0
7 12 25 0
7 -12 -25 0
7 12 26 0
7 -12 -26 0
3 12 29 0
3 -12 -29 0
6 12 30 0
6 -12 -30 0
1 12 31 0
1 -12 -31 0
3 12 32 0
3 -12 -32 0
9 12 33 0
9 -12 -33 0
7 12 34 0
7 -12 -34 0
1 12 35 0
1 -12 -35 0
2 12 36 0
2 -12 -36 0
4 12 37 0
4 -12 -37 0
6 12 38 0
6 -12 -38 0
6 12 39 0
6 -12 -39 0
7 12 40 0
7 -12 -40 0
3 13 15 0
3 -13 -15 0
8 13 17 0
8 -13 -17 0
3 13 18 0
3 -13 -18 0
4 13 19 0
4 -13 -19 0
2 13 21 0
2 -13 -21 0
10 13 23 0
10 -13 -23 0
1 13 24 0
1 -13 -24 0
9 13 25 0
9 -13 -25 0
4 13 27 0
4 -13 -27 0
2 13 29 0
2 -13 -29 0
5 13 32 0
5 -13 -32 0
10 13 34 0
10 -13 -34 0
10 13 36 0
10 -13 -36 0
8 13 37 0
8 -13 -37 0
7 13 38 0
7 -13 -38 0
2 13 39 0
2 -13 -39 0
7 13 40 0
7 -13 -40 0
4 14 15 0
4 -14 -15 0
8 14 17 0
8 -14 -17 0
10 14 18 0
10 -14 -18 0
10 14 19 0
10 -14 -19 0
9 14 22 0
9 -14 -22 0
3 14 24 0
3 -14 -24 0
8 14 25 0
8 -14 -25 0
6 14 29 0
6 -14 -29 0
3 14 30 0
3 -14 -30 0
10 14 32 0
10 -14 -32 0
10 14 34 0
10 -14 -34 0
9 14 36 0
9 -14 -36 0
5 14 37 0
5 -14 -37 0
6 14 38 0
6 -14 -38 0
2 14 39 0
2 -14 -39 0
3 15 17 0
3 -15 -17 0
9 15 19 0
9 -15 -19 0
5 15 20 0
5 -15 -20 0
5 15 25 0
5 -15 -25 0
9 15 26 0
9 -15 -26 0
5 15 27 0
5 -15 -27 0
3 15 28 0
3 -15 -28 0
2 15 29 0
2 -15 -29 0
7 15 32 0
7 -15 -32 0
8 15 33 0
8 -15 -33 0
2 15 35 0
2 -15 -35 0
7 15 36 0
7 -15 -36 0
5 15 37 0
5 -15 -37 0
9 15 38 0
9 -15 -38 0
8 15 40 0
8 -15 -40 0
2 16 17 0
2 -16 -17 0
3 16 19 0
3 -16 -19 0
5 16 20 0
5 -16 -20 0
2 16 21 0
2 -16 -21 0
2 16 22 0
2 -16 -22 0
4 16 23 0
4 -16 -23 0
4 16 26 0
4 -16 -26 0
10 16 29 0
10 -16 -29 0
10 16 32 0
10 -16 -32 0
7 16 33 0
7 -16 -33 0
9 16 35 0
9 -16 -35 0
9 16 37 0
9 -16 -37 0
5 16 38 0
5 -16 -38 0
4 16 39 0
4 -16 -39 0
4 16 40 0
4 -16 -40 0
7 17 18 0
7 -17 -18 0
7 17 19 0
7 -17 -19 0
3 17 21 0
3 -17 -21 0
2 17 22 0
2 -17 -22 0
1 17 28 0
1 -17 -28 0
2 17 29 0
2 -17 -29 0
7 17 30 0
7 -17 -30 0
4 17 32 0
4 -17 -32 0
3 17 34 0
3 -17 -34 0
4 17 38 0
4 -17 -38 0
1 17 39 0
1 -17 -39 0
5 18 19 0
5 -18 -19 0
10 18 20 0
10 -18 -20 0
6 18 21 0
6 -18 -21 0
3 18 22 0
3 -18 -22 0
7 18 23 0
7 -18 -23 0
8 18 24 0
8 -18 -24 0
5 18 27 0
5 -18 -27 0
2 18 28 0
2 -18 -28 0
9 18 31 0
9 -18 -31 0
7 18 33 0
7 -18 -33 0
6 18 36 0
6 -18 -36 0
3 18 37 0
3 -18 -37 0
6 18 39 0
6 -18 -39 0
5 18 40 0
5 -18 -40 0
9 19 20 0
9 -19 -20 0
4 19 21 0
4 -19 -21 0
3 19 23 0
3 -19 -23 0
4 19 26 0
4 -19 -26 0
8 19 28 0
8 -19 -28 0
7 19 29 0
7 -19 -29 0
10 19 30 0
10 -19 -30 0
4 19 31 0
4 -19 -31 0
9 19 32 0
9 -19 -32 0
2 19 34 0
2 -19 -34 0
5 19 36 0
5 -19 -36 0
1 19 37 0
1 -19 -37 0
8 19 38 0
8 -19 -38 0
8 19 39 0
8 -19 -39 0
3 19 40 0
3 -19 -40 0
2 20 21 0
2 -20 -21 0
9 20 22 0
9 -20 -22 0
8 20 23 0
8 -20 -23 0
1 20 25 0
1 -20 -25 0
5 20 26 0
5 -20 -26 0
10 20 29 0
10 -20 -29 0
8 20 30 0
8 -20 -30 0
3 20 31 0
3 -20 -31 0
5 20 32 0
5 -20 -32 0
9 20 33 0
9 -20 -33 0
1 20 34 0
1 -20 -34 0
1 20 36 0
1 -20 -36 0
4 20 38 0
4 -20 -38 0
4 21 22 0
4 -21 -22 0
7 21 23 0
7 -21 -23 0
9 21 24 0
9 -21 -24 0
2 21 25 0
2 -21 -25 0
1 21 27 0
1 -21 -27 0
1 21 28 0
1 -21 -28 0
5 21 29 0
5 -21 -29 0
8 21 32 0
8 -21 -32 0
7 21 33 0
7 -21 -33 0
5 21 34 0
5 -21 -34 0
2 21 35 0
2 -21 -35 0
6 21 37 0
6 -21 -37 0
6 21 38 0
6 -21 -38 0
6 21 39 0
6 -21 -39 0
6 21 40 0
6 -21 -40 0
4 22 24 0
4 -22 -24 0
4 22 25 0
4 -22 -25 0
9 22 26 0
9 -22 -26 0
5 22 27 0
5 -22 -27 0
2 22 28 0
2 -22 -28 0
7 22 30 0
7 -22 -30 0
6 22 31 0
6 -22 -31 0
7 22 35 0
7 -22 -35 0
6 22 36 0
6 -22 -36 0
3 22 38 0
3 -22 -38 0
9 22 39 0
9 -22 -39 0
1 22 40 0
1 -22 -40 0
1 23 24 0
1 -23 -24 0
10 23 27 0
10 -23 -27 0
2 23 30 0
2 -23 -30 0
5 23 31 0
5 -23 -31 0
3 23 32 0
3 -23 -32 0
9 23 33 0
9 -23 -33 0
3 23 36 0
3 -23 -36 0
4 23 37 0
4 -23 -37 0
9 23 38 0
9 -23 -38 0
4 23 39 0
4 -23 -39 0
9 24 25 0
9 -24 -25 0
7 24 27 0
7 -24 -27 0
1 24 30 0
1 -24 -30 0
3 24 31 0
3 -24 -31 0
8 24 32 0
8 -24 -32 0
7 24 34 0
7 -24 -34 0
9 24 36 0
9 -24 -36 0
4 24 38 0
4 -24 -38 0
3 24 39 0
3 -24 -39 0
2 24 40 0
2 -24 -40 0
7 25 27 0
7 -25 -27 0
2 25 28 0
2 -25 -28 0
7 25 29 0
7 -25 -29 0
8 25 30 0
8 -25 -30 0
8 25 31 0
8 -25 -31 0
3 25 32 0
3 -25 -32 0
5 25 33 0
5 -25 -33 0
4 25 34 0
4 -25 -34 0
5 25 37 0
5 -25 -37 0
3 25 39 0
3 -25 -39 0
4 25 40 0
4 -25 -40 0
6 26 27 0
6 -26 -27 0
2 26 30 0
2 -26 -30 0
6 26 31 0
6 -26 -31 0
1 26 32 0
1 -26 -32 0
4 26 33 0
4 -26 -33 0
4 26 34 0
4 -26 -34 0
4 26 35 0
4 -26 -35 0
8 26 38 0
8 -26 -38 0
3 26 39 0
3 -26 -39 0
7 26 40 0
7 -26 -40 0
6 27 29 0
6 -27 -29 0
10 27 30 0
10 -27 -30 0
7 27 31 0
7 -27 -31 0
9 27 33 0
9 -27 -33 0
7 27 34 0
7 -27 -34 0
4 27 36 0
4 -27 -36 0
7 27 38 0
7 -27 -38 0
1 27 39 0
1 -27 -39 0
6 28 30 0
6 -28 -30 0
9 28 33 0
9 -28 -33 0
7 28 36 0
7 -28 -36 0
7 28 37 0
7 -28 -37 0
6 28 39 0
6 -28 -39 0
5 28 40 0
5 -28 -40 0
4 29 30 0
4 -29 -30 0
8 29 31 0
8 -29 -31 0
9 29 32 0
9 -29 -32 0
7 29 34 0
7 -29 -34 0
2 29 35 0
2 -29 -35 0
1 29 36 0
1 -29 -36 0
1 29 39 0
1 -29 -39 0
7 29 40 0
7 -29 -40 0
2 30 31 0
2 -30 -31 0
7 30 33 0
7 -30 -33 0
8 30 34 0
8 -30 -34 0
6 30 35 0
6 -30 -35 0
1 30 37 0
1 -30 -37 0
1 30 39 0
1 -30 -39 0
4 31 33 0
4 -31 -33 0
3 31 34 0
3 -31 -34 0
7 31 35 0
7 -31 -35 0
9 31 36 0
9 -31 -36 0
2 31 37 0
2 -31 -37 0
4 31 40 0
4 -31 -40 0
7 32 33 0
7 -32 -33 0
9 32 35 0
9 -32 -35 0
7 32 37 0
7 -32 -37 0
4 32 40 0
4 -32 -40 0
9 33 35 0
9 -33 -35 0
2 33 36 0
2 -33 -36 0
2 33 37 0
2 -33 -37 0
6 33 38 0
6 -33 -38 0
9 34 36 0
9 -34 -36 0
7 34 37 0
7 -34 -37 0
10 34 38 0
10 -34 -38 0
2 34 39 0
2 -34 -39 0
4 35 36 0
4 -35 -36 0
8 35 38 0
8 -35 -38 0
9 35 39 0
9 -35 -39 0
6 35 40 0
6 -35 -40 0
8 36 37 0
8 -36 -37 0
10 36 38 0
10 -36 -38 0
3 36 40 0
3 -36 -40 0
10 37 38 0
10 -37 -38 0
6 38 39 0
6 -38 -39 0
10 39 40 0
10 -39 -40 0
